 vasp.5.4.4.18Apr17-6-g9f103f2a35 (build Sep 15 2021 12:59:37) complex
 executed on             LinuxGNU date 2022.10.04  11:27:47

 INCAR:
 POTCAR:    PAW_PBE Si 05Jan2001

 POTCAR:    PAW_PBE Si 05Jan2001
   VRHFIN =Si: s2p2

   TITEL  = PAW_PBE Si 05Jan2001
   POMASS =   28.085; ZVAL   =    4.000    mass and valenz
   ENMAX  =  245.345; ENMIN  =  184.009 eV

 Optimization of the real space projectors (new method)

 maximal supplied QI-value         = 19.84
 optimisation between [QCUT,QGAM] = [  7.94, 16.07] = [ 17.64, 72.34] Ry
 Optimized for a Real-space Cutoff    1.22 Angstroem

   l    n(q)    QCUT    max X(q) W(low)/X(q) W(high)/X(q)  e(spline)
   0      6     7.937   159.560    0.56E-03    0.15E-02    0.73E-07
   0      6     7.937   115.863    0.56E-03    0.15E-02    0.72E-07
   1      5     7.937    88.339    0.41E-02    0.34E-02    0.59E-07
   1      5     7.937    48.592    0.40E-02    0.33E-02    0.57E-07

  PAW_PBE Si 05Jan2001                  :

 POSCAR: Si cubic diamond 2x2x2 super cell of con
  positions in direct lattice
  velocities in cartesian coordinates
 exchange correlation table for  LEXCH =       14
   RHO(1)=    0.500       N(1)  =     2000
   RHO(2)=  100.500       N(2)  =     4000

 ion  position               nearest neighbor table
   1  0.009  0.003  1.000-  63 2.30  14 2.32  41 2.32  28 2.41
   2  0.510  0.984  0.996-  27 2.32  64 2.35  42 2.41  13 2.50
   3  0.991  0.502  0.002-  26 2.30  43 2.30  16 2.35  61 2.47
   4  0.494  0.500  1.000-  15 2.30  25 2.30  62 2.31  44 2.43
   5  0.003  0.990  0.495-  45 2.28  32 2.31  59 2.35  10 2.41
   6  0.489  0.018  0.514-  46 2.21   9 2.35  31 2.39  60 2.50
   7  0.010  0.483  0.515-  30 2.32  57 2.34  47 2.35  12 2.39
   8  0.502  0.515  0.500-  58 2.28  48 2.33  11 2.34  29 2.41
   9  0.369  0.130  0.374-  33 2.29  53 2.29   6 2.35  18 2.38
  10  0.875  0.123  0.371-  34 2.25  54 2.29   5 2.41  17 2.42
  11  0.382  0.629  0.363-  20 2.28   8 2.34  35 2.36  55 2.38
  12  0.882  0.607  0.385-  19 2.34   7 2.39  56 2.41  36 2.49
  13  0.372  0.127  0.880-  22 2.30  49 2.35  37 2.39   2 2.50
  14  0.885  0.133  0.884-  21 2.27   1 2.32  50 2.34  38 2.49
  15  0.371  0.619  0.876-  39 2.22   4 2.30  51 2.33  24 2.37
  16  0.869  0.626  0.873-  40 2.21   3 2.35  52 2.37  23 2.39
  17  0.004  0.245  0.235-  41 2.28  26 2.35  57 2.41  10 2.42
  18  0.501  0.248  0.245-  42 2.27  25 2.33   9 2.38  58 2.45
  19  0.991  0.737  0.252-  12 2.34  43 2.36  59 2.40  28 2.43
  20  0.509  0.752  0.249-  60 2.28  11 2.28  44 2.31  27 2.35
  21  0.998  0.246  0.749-  14 2.27  45 2.35  30 2.38  61 2.39
  22  0.503  0.238  0.754-  13 2.30  46 2.34  62 2.37  29 2.49
  23  0.992  0.754  0.742-  16 2.39  32 2.40  47 2.44  63 2.45
  24  0.493  0.748  0.748-  31 2.30  64 2.34  48 2.35  15 2.37
  25  0.377  0.373  0.122-  49 2.26   4 2.30  18 2.33  35 2.43
  26  0.873  0.374  0.121-   3 2.30  50 2.33  36 2.33  17 2.35
  27  0.380  0.877  0.128-   2 2.32  33 2.35  20 2.35  51 2.43
  28  0.875  0.885  0.131-  52 2.27   1 2.41  34 2.43  19 2.43
  29  0.378  0.375  0.619-  53 2.34   8 2.41  39 2.41  22 2.49
  30  0.867  0.376  0.631-  40 2.28  54 2.31   7 2.32  21 2.38
  31  0.370  0.880  0.638-  37 2.29  24 2.30  55 2.36   6 2.39
  32  0.864  0.881  0.614-  56 2.30   5 2.31  38 2.38  23 2.40
  33  0.255  0.002  0.252-   9 2.29  41 2.33  27 2.35  59 2.43
  34  0.742  0.008  0.261-  10 2.25  42 2.33  60 2.41  28 2.43
  35  0.246  0.506  0.245-  43 2.35  11 2.36  57 2.41  25 2.43
  36  0.743  0.494  0.242-  44 2.28  26 2.33  58 2.36  12 2.49
  37  0.242  0.002  0.754-  31 2.29  63 2.35  13 2.39  45 2.43
  38  0.747  0.009  0.748-  32 2.38  46 2.39  64 2.41  14 2.49
  39  0.256  0.507  0.749-  15 2.22  47 2.32  61 2.37  29 2.41
  40  0.756  0.505  0.755-  16 2.21  30 2.28  48 2.32  62 2.42
  41  0.134  0.124  0.124-  17 2.28  49 2.29   1 2.32  33 2.33
  42  0.621  0.124  0.128-  18 2.27  34 2.33  50 2.35   2 2.41
  43  0.119  0.625  0.117-  51 2.29   3 2.30  35 2.35  19 2.36
  44  0.628  0.627  0.126-  36 2.28  20 2.31  52 2.40   4 2.43
  45  0.114  0.121  0.615-   5 2.28  21 2.35  53 2.38  37 2.43
  46  0.625  0.132  0.612-   6 2.21  54 2.33  22 2.34  38 2.39
  47  0.132  0.626  0.622-  39 2.32   7 2.35  55 2.36  23 2.44
  48  0.629  0.626  0.632-  40 2.32   8 2.33  24 2.35  56 2.41
  49  0.251  0.254  0.006-  25 2.26  41 2.29  13 2.35  61 2.41
  50  0.747  0.247  0.003-  26 2.33  14 2.34  42 2.35  62 2.45
  51  0.252  0.742  0.004-  43 2.29  15 2.33  63 2.38  27 2.43
  52  0.761  0.758  0.009-  28 2.27  64 2.37  16 2.37  44 2.40
  53  0.250  0.250  0.500-   9 2.29  29 2.34  57 2.34  45 2.38
  54  0.762  0.249  0.496-  10 2.29  30 2.31  46 2.33  58 2.48
  55  0.263  0.750  0.501-  31 2.36  47 2.36  59 2.37  11 2.38
  56  0.751  0.749  0.494-  32 2.30  60 2.36  12 2.41  48 2.41
  57  0.126  0.370  0.372-  53 2.34   7 2.34  35 2.41  17 2.41
  58  0.618  0.385  0.382-   8 2.28  36 2.36  18 2.45  54 2.48
  59  0.127  0.863  0.372-   5 2.35  55 2.37  19 2.40  33 2.43
  60  0.613  0.875  0.383-  20 2.28  56 2.36  34 2.41   6 2.50
  61  0.128  0.378  0.869-  39 2.37  21 2.39  49 2.41   3 2.47
  62  0.617  0.379  0.875-   4 2.31  22 2.37  40 2.42  50 2.45
  63  0.125  0.872  0.880-   1 2.30  37 2.35  51 2.38  23 2.45
  64  0.632  0.861  0.866-  24 2.34   2 2.35  52 2.37  38 2.41

IMPORTANT INFORMATION: All symmetrisations will be switched off!
NOSYMM: (Re-)initialisation of all symmetry stuff for point group C_1.

 KPOINTS: K-Points

Automatic generation of k-mesh.
Space group operators:
 irot       det(A)        alpha          n_x          n_y          n_z        tau_x        tau_y        tau_z
    1     1.000000     0.000000     1.000000     0.000000     0.000000     0.000000     0.000000     0.000000

 Subroutine IBZKPT returns following result:

 Found      1 irreducible k-points:

 Following reciprocal coordinates:
            Coordinates               Weight
  0.000000  0.000000  0.000000      1.000000

 Following cartesian coordinates:
            Coordinates               Weight
  0.000000  0.000000  0.000000      1.000000

 SYSTEM =  si_2x2x2
 POSCAR =  Si cubic diamond 2x2x2 super cell of con

 Startparameter for this run:
   NWRITE =      2    write-flag & timer
   PREC   = low       normal or accurate (medium, high low for compatibility)
   ISTART =      1    job   : 0-new  1-cont  2-samecut
   ICHARG =      0    charge: 1-file 2-atom 10-const
   ISPIN  =      1    spin polarized calculation?
   LNONCOLLINEAR =      F non collinear calculations
   LSORBIT =      F    spin-orbit coupling
   INIWAV =      1    electr: 0-lowe 1-rand  2-diag
   LASPH  =      F    aspherical Exc in radial PAW
   METAGGA=      F    non-selfconsistent MetaGGA calc.

 Electronic Relaxation 1
   ENCUT  =  250.0 eV  18.37 Ry    4.29 a.u.  14.00 14.00 14.00*2*pi/ulx,y,z
   ENINI  =  250.0     initial cutoff
   ENAUG  =  322.1 eV  augmentation charge cutoff
   NELM   =    150;   NELMIN=  2; NELMDL=  0     # of ELM steps
   EDIFF  = 0.1E-05   stopping-criterion for ELM
   LREAL  =      T    real-space projection
   NLSPLINE    = F    spline interpolate recip. space projectors
   LCOMPAT=      F    compatible to vasp.4.4
   GGA_COMPAT  = T    GGA compatible to vasp.4.4-vasp.4.6
   LMAXPAW     = -100 max onsite density
   LMAXMIX     =    2 max onsite mixed and CHGCAR
   VOSKOWN=      0    Vosko Wilk Nusair interpolation
   ROPT   =   -0.01000
 Ionic relaxation
   EDIFFG = 0.1E-04   stopping-criterion for IOM
   NSW    =    100    number of steps for IOM
   NBLOCK =      1;   KBLOCK =    100    inner block; outer block
   IBRION =      0    ionic relax: 0-MD 1-quasi-New 2-CG
   NFREE  =      0    steps in history (QN), initial steepest desc. (CG)
   ISIF   =      3    stress and relaxation
   IWAVPR =     12    prediction:  0-non 1-charg 2-wave 3-comb
   ISYM   =      0    0-nonsym 1-usesym 2-fastsym
   LCORR  =      T    Harris-Foulkes like correction to forces

   POTIM  = 3.0000    time-step for ionic-motion
   TEIN   =  445.3    initial temperature
   TEBEG  =  600.0;   TEEND  = 600.0 temperature during run
   SMASS  =   1.00    Nose mass-parameter (am)
   estimated Nose-frequenzy (Omega)   =  0.40E+14 period in steps = 52.39 mass=   0.899E-27a.u.
   SCALEE = 1.0000    scale energy and forces
   NPACO  =    256;   APACO  = 16.0  distance and # of slots for P.C.
   PSTRESS=    0.0 pullay stress

  Mass of Ions in am
   POMASS =  28.09
  Ionic Valenz
   ZVAL   =   4.00
  Atomic Wigner-Seitz radii
  virtual crystal weights
   VCA    =   1.00
   NELECT =     256.0000    total number of electrons
   NUPDOWN=      -1.0000    fix difference up-down

 DOS related values:
   EMIN   =  10.00;   EMAX   =-10.00  energy-range for DOS
   EFERMI =   0.00
   ISMEAR =     0;   SIGMA  =   0.10  broadening in eV -4-tet -1-fermi 0-gaus

 Electronic relaxation 2 (details)
   IALGO  =     48    algorithm
   LDIAG  =      T    sub-space diagonalisation (order eigenvalues)
   LSUBROT=      F    optimize rotation matrix (better conditioning)
   TURBO    =      0    0=normal 1=particle mesh
   IRESTART =      0    0=no restart 2=restart with 2 vectors
   NREBOOT  =      0    no. of reboots
   NMIN     =      0    reboot dimension
   EREF     =   0.00    reference energy to select bands
   IMIX   =      4    mixing-type and parameters
     AMIX     =   0.40;   BMIX     =  1.00
     AMIX_MAG =   1.60;   BMIX_MAG =  1.00
     AMIN     =   0.10
     WC   =   100.;   INIMIX=   1;  MIXPRE=   1;  MAXMIX= -45

 Intra band minimization:
   WEIMIN = 0.0010     energy-eigenvalue tresh-hold
   EBREAK =  0.16E-08  absolut break condition
   DEPER  =   0.30     relativ break condition

   TIME   =   0.40     timestep for ELM

  volume/ion in A,a.u.               =      20.02       135.12
  Fermi-wavevector in a.u.,A,eV,Ry     =   0.957017  1.808500 12.461327  0.915882
  Thomas-Fermi vector in A             =   2.085997

 Write flags
   LWAVE        =      T    write WAVECAR
   LDOWNSAMPLE  =      F    k-point downsampling of WAVECAR
   LCHARG       =      T    write CHGCAR
   LVTOT        =      F    write LOCPOT, total local potential
   LVHAR        =      F    write LOCPOT, Hartree potential only
   LELF         =      F    write electronic localiz. function (ELF)
   LORBIT       =      0    0 simple, 1 ext, 2 COOP (PROOUT), +10 PAW based schemes

 Dipole corrections
   LMONO  =      F    monopole corrections only (constant potential shift)
   LDIPOL =      F    correct potential (dipole corrections)
   IDIPOL =      0    1-x, 2-y, 3-z, 4-all directions
   EPSILON=  1.0000000 bulk dielectric constant

 Exchange correlation treatment:
   GGA     =    PS    GGA type
   VOSKOWN=      0    Vosko Wilk Nusair interpolation
   LHFCALC =     F    Hartree Fock is set to
   LHFONE  =     F    Hartree Fock one center treatment
   AEXX    =    0.0000 exact exchange contribution

 Linear response parameters
   LEPSILON=     F    determine dielectric tensor
   LRPA    =     F    only Hartree local field effects (RPA)
   LNABLA  =     F    use nabla operator in PAW spheres
   LVEL    =     F    velocity operator in full k-point grid
   LINTERFAST=   F  fast interpolation
[...]
  Direction    XX          YY          ZZ          XY          YZ          ZX
  Alpha Z   107.59920   107.59920   107.59920
  Ewald   -2436.77420 -2435.49467 -2430.90013    22.20346    15.30950   -63.19658
  Hartree   160.09483   160.41212   162.63766     3.45516     1.58388    -7.49492
  E(xc)    -818.99674  -819.00661  -819.04799    -0.23359    -0.22579     0.81049
  Local    -939.57917  -941.38528  -946.77137   -26.44291   -15.48920    67.30045
  n-local  2480.96948  2481.73119  2481.70913     3.75146     3.59674   -13.18491
  augment  -364.55854  -364.75630  -364.57605    -0.32732    -0.16082     0.64823
  Kinetic  1818.52790  1820.15908  1818.73789    -0.66999    -1.57954     7.11865
  Fock        0.00000     0.00000     0.00000     0.00000     0.00000     0.00000
  Total       7.28275     9.25872     9.38836     1.73627     3.03478    -7.99859
  in kB       9.10544    11.57594    11.73802     2.17081     3.79431   -10.00043

  Total+kin.    12.150      14.568      14.622       1.934       3.624     -10.282

 VOLUME and BASIS-vectors are now :
  energy-cutoff  :      250.00
  volume of cell :     1281.46
      direct lattice vectors                 reciprocal lattice vectors
    10.861800000  0.000000000  0.000000000     0.092065772  0.000000000  0.000000000
     0.000000000 10.861800000  0.000000000     0.000000000  0.092065772  0.000000000
     0.000000000  0.000000000 10.861800000     0.000000000  0.000000000  0.092065772

  length of vectors
    10.861800000 10.861800000 10.861800000     0.092065772  0.092065772  0.092065772

 FORCES acting on ions
    electron-ion (+dipol)            ewald-force                    non-local-force                 convergence-correction
   0.199E+01 -.437E+01 -.123E+01   -.147E+01 0.338E+01 0.142E+01   -.608E+00 0.226E+01 -.681E+00   0.369E-03 0.241E-03 0.422E-03
   0.593E+01 0.222E+01 -.715E+01   -.532E+01 -.244E+01 0.643E+01   -.173E+00 0.888E+00 0.687E+00   0.112E-03 -.422E-03 0.619E-03
   0.161E+01 -.884E+01 0.792E+00   -.176E+01 0.778E+01 -.896E+00   0.341E+00 0.190E+01 -.800E-01   -.119E-03 0.634E-04 -.147E-04
   0.341E+01 -.153E+02 0.174E+01   -.253E+01 0.145E+02 -.165E+01   -.147E+01 0.179E+01 0.596E+00   0.758E-04 0.325E-03 0.158E-03
   0.597E+01 -.318E+01 0.200E+01   -.465E+01 0.347E+01 -.148E+01   -.278E+01 0.266E+00 -.844E-01   -.232E-03 -.630E-03 0.799E-04
   0.845E+01 0.258E+01 -.315E+01   -.753E+01 -.290E+01 0.279E+01   -.177E+01 0.359E+00 0.139E+01   -.860E-04 -.267E-03 0.187E-03
   -.435E+01 -.285E+00 -.555E+01   0.363E+01 0.388E+00 0.500E+01   0.171E+01 0.369E+00 0.179E+01   0.189E-03 0.787E-05 -.132E-03
   -.312E+01 -.117E+02 -.894E+01   0.237E+01 0.108E+02 0.899E+01   0.295E+00 0.288E+01 0.401E+00   0.240E-03 -.373E-03 -.482E-03
   0.109E+02 0.655E+01 -.606E+00   -.100E+02 -.680E+01 0.329E+00   -.229E+01 0.517E-01 0.766E+00   -.535E-03 0.368E-03 -.495E-03
   -.908E+01 0.448E+01 -.586E+00   0.856E+01 -.425E+01 0.492E+00   0.168E+01 -.152E+01 -.113E+00   -.156E-03 -.226E-03 -.243E-03
   -.318E+01 -.516E+01 -.373E+01   0.272E+01 0.492E+01 0.346E+01   0.185E+01 0.105E+00 0.922E+00   -.766E-04 -.342E-03 -.607E-03
   0.142E+00 0.169E+01 0.690E+01   0.614E+00 -.136E+01 -.528E+01   -.850E+00 -.146E+01 -.189E+01   0.608E-03 0.585E-04 -.754E-03
   0.256E+01 0.799E+01 0.257E+01   -.270E+01 -.709E+01 -.215E+01   -.187E+00 -.187E+01 0.800E+00   0.173E-03 0.163E-03 -.200E-03
   -.118E+02 -.157E+01 0.932E+00   0.108E+02 0.102E+01 -.120E+01   0.187E+01 -.128E-01 0.465E+00   0.460E-04 0.874E-03 -.170E-03
   -.202E+00 0.157E+01 0.290E+01   -.454E-01 -.399E+00 -.204E+01   0.422E+00 -.220E+01 -.685E+00   0.929E-05 -.770E-04 0.451E-03
   -.135E+01 -.216E+01 -.649E+01   0.173E+01 0.165E+01 0.535E+01   0.394E-01 0.982E+00 0.215E+01   -.632E-03 -.373E-03 0.703E-04
   -.340E+01 0.477E+01 0.934E+00   0.337E+01 -.425E+01 -.891E+00   -.798E+00 -.657E+00 -.472E-01   0.565E-03 -.494E-03 -.516E-03
   0.637E+01 0.185E+01 0.248E+01   -.594E+01 -.230E+01 -.235E+01   -.134E+01 0.561E+00 -.530E+00   -.109E-02 -.291E-03 -.447E-03
   -.106E+02 0.258E+01 0.821E+01   0.941E+01 -.201E+01 -.746E+01   0.206E+01 -.140E+01 -.194E+01   0.153E-03 -.441E-03 0.325E-03
   0.642E+01 -.373E+01 0.329E+01   -.548E+01 0.351E+01 -.273E+01   -.143E+01 0.630E+00 -.182E+01   0.315E-03 0.140E-03 -.402E-03
   0.504E+01 -.266E+01 0.319E+01   -.374E+01 0.200E+01 -.285E+01   -.222E+01 0.114E+01 -.503E+00   -.587E-03 0.313E-03 0.366E-03
   -.603E+01 -.284E+01 0.765E+01   0.507E+01 0.247E+01 -.666E+01   0.142E+01 0.380E+00 -.258E+01   -.720E-04 -.300E-03 -.871E-04
   -.215E+01 0.403E+01 -.872E+00   0.171E+01 -.367E+01 0.781E+00   0.447E+00 -.649E+00 0.146E+00   0.147E-03 -.247E-03 -.722E-04
   -.392E+01 0.178E+01 0.195E+01   0.291E+01 -.144E+01 -.201E+01   0.882E+00 -.703E+00 -.149E+00   0.302E-03 0.114E-03 0.319E-03
   0.658E+01 -.216E+01 0.493E+01   -.597E+01 0.236E+01 -.483E+01   -.925E+00 -.174E+00 0.575E-01   0.207E-03 -.582E-03 0.205E-03
   -.465E+01 -.302E+01 -.323E+01   0.527E+01 0.243E+01 0.221E+01   -.155E+00 0.767E+00 0.164E+01   -.267E-03 0.186E-03 -.937E-04
   -.441E+00 0.332E+01 -.441E+01   -.199E+00 -.330E+01 0.407E+01   -.229E+00 -.154E+00 0.121E+01   0.745E-03 0.265E-03 -.114E-03
   -.381E+01 -.170E+01 -.228E+01   0.363E+01 0.157E+01 0.165E+01   0.907E+00 0.147E+01 0.769E+00   -.323E-03 -.349E-03 0.198E-03
   0.181E+01 0.329E+01 -.477E+01   -.197E+01 -.234E+01 0.408E+01   0.192E+01 -.144E+01 0.549E+00   0.422E-03 -.731E-03 -.407E-03
   -.119E+02 0.387E+01 -.705E+01   0.106E+02 -.370E+01 0.602E+01   0.241E+01 -.596E+00 0.176E+01   -.145E-03 0.831E-04 0.405E-03
   0.635E+01 0.203E+01 0.915E+01   -.558E+01 -.183E+01 -.801E+01   -.851E+00 -.325E+00 -.208E+01   0.206E-03 0.373E-03 -.960E-04
   -.132E+01 -.187E+01 0.686E+01   0.197E+01 0.162E+01 -.622E+01   -.438E+00 -.553E+00 -.224E+01   -.143E-03 0.606E-04 -.868E-03
   -.223E+01 0.678E+00 -.327E-01   0.189E+01 -.727E+00 -.288E+00   0.205E+01 0.494E+00 -.521E+00   0.771E-03 0.853E-03 -.262E-03
   -.261E+01 -.160E+01 0.318E+00   0.281E+01 0.141E+01 0.410E+00   -.404E+00 0.490E+00 -.124E+01   -.181E-03 -.137E-03 -.237E-03
   0.103E+01 0.368E+01 0.663E+01   -.154E+01 -.263E+01 -.619E+01   0.328E-01 -.162E+01 -.104E+01   0.299E-03 -.997E-04 0.588E-03
   -.992E+01 0.473E+01 -.273E+01   0.863E+01 -.361E+01 0.178E+01   0.290E+01 -.106E+01 0.800E+00   0.748E-04 -.163E-03 -.191E-03
   0.484E+01 0.165E+01 0.392E+01   -.456E+01 -.154E+01 -.419E+01   -.406E+00 0.628E+00 -.118E+01   0.552E-03 0.171E-03 -.211E-03
   -.330E+01 -.424E+01 0.110E+02   0.350E+01 0.405E+01 -.969E+01   0.104E+00 0.180E+01 -.230E+01   -.320E-03 0.516E-03 -.817E-03
   0.579E+01 -.114E+02 -.581E+01   -.564E+01 0.103E+02 0.506E+01   -.767E+00 0.248E+01 0.113E+01   -.306E-03 0.490E-03 0.847E-03
   -.370E+01 0.641E+00 0.424E+00   0.354E+01 -.791E-01 -.316E+00   -.117E+00 0.901E-01 0.329E+00   0.744E-04 0.163E-04 0.360E-03
   0.183E+01 0.206E+01 0.230E+01   -.208E+01 -.247E+01 -.172E+01   -.253E+00 0.164E+00 -.618E+00   0.468E-04 0.342E-03 0.612E-03
   -.351E+01 0.155E+02 -.370E+01   0.324E+01 -.140E+02 0.334E+01   0.367E-01 -.397E+01 0.867E+00   -.593E-03 -.371E-03 -.948E-04
   0.108E+02 -.339E+01 0.143E+01   -.929E+01 0.291E+01 -.176E+01   -.321E+01 0.973E+00 0.566E+00   -.786E-04 0.175E-03 0.173E-03
   -.375E+00 -.675E+01 0.114E+02   0.173E+00 0.600E+01 -.103E+02   -.117E+01 0.134E+01 -.286E+01   -.254E-03 0.594E-03 -.509E-03
   -.665E+01 -.643E+00 0.457E+01   0.526E+01 0.234E+00 -.483E+01   0.235E+01 0.383E+00 0.423E-02   0.371E-03 -.163E-03 -.298E-04
   0.538E+00 0.101E+01 -.305E+01   -.293E+00 -.117E+01 0.214E+01   0.334E+00 0.269E+00 0.152E+01   -.143E-03 0.315E-05 0.148E-03
   0.429E+01 0.369E+01 -.831E+00   -.406E+01 -.298E+01 0.102E+01   -.487E+00 -.116E+01 -.713E+00   0.507E-04 0.166E-03 -.653E-04
   0.298E+01 -.407E+01 0.245E+01   -.218E+01 0.375E+01 -.202E+01   -.775E+00 -.166E-01 -.142E+01   0.207E-03 0.313E-03 0.282E-03
   0.522E+01 0.422E+01 -.800E+01   -.512E+01 -.387E+01 0.643E+01   0.189E+00 -.565E+00 0.240E+01   0.749E-03 -.862E-04 0.641E-03
   -.110E+02 0.133E+01 0.671E+01   0.105E+02 -.139E+01 -.579E+01   0.148E+01 0.812E+00 -.160E+01   0.124E-03 0.254E-03 -.923E-04
   0.225E+01 -.247E+01 -.287E+01   -.226E+01 0.219E+01 0.240E+01   0.678E+00 0.694E+00 0.421E+00   0.319E-03 -.327E-03 0.576E-04
   0.146E+01 0.896E+01 0.801E+01   -.752E+00 -.761E+01 -.694E+01   -.708E+00 -.328E+01 -.140E+01   -.927E-03 -.631E-03 0.411E-03
   0.548E+01 0.125E+02 0.382E+01   -.564E+01 -.114E+02 -.316E+01   -.952E+00 -.280E+01 -.533E+00   0.748E-03 -.198E-03 -.694E-03
   0.971E+00 0.506E+01 -.111E+01   -.289E+00 -.477E+01 0.174E+01   -.173E+01 -.320E+00 -.925E+00   -.262E-03 0.157E-03 0.287E-03
   -.160E+01 -.530E+01 -.705E+01   0.103E+01 0.472E+01 0.656E+01   0.542E+00 0.151E+01 0.189E+01   -.484E-03 0.276E-03 -.224E-03
   -.176E+01 -.482E+01 -.112E+02   0.149E+01 0.474E+01 0.101E+02   -.674E+00 0.993E+00 0.264E+01   -.532E-03 0.761E-03 0.374E-03
   0.351E+01 0.196E+01 -.406E+01   -.335E+01 -.226E+01 0.315E+01   -.404E-01 -.221E+00 0.688E+00   0.700E-03 0.144E-03 -.250E-03
   -.233E+01 -.430E+00 -.814E+01   0.202E+01 0.142E+00 0.763E+01   0.176E+01 -.509E-01 0.137E+01   0.306E-04 0.336E-03 0.194E-03
   -.570E+00 -.146E+01 -.307E+01   0.610E+00 0.164E+01 0.300E+01   -.289E+00 -.442E+00 0.307E+00   -.331E-03 -.716E-03 0.379E-03
   -.233E+01 -.157E+01 -.305E+01   0.196E+01 0.133E+01 0.314E+01   0.121E+01 0.361E+00 0.502E-01   -.321E-03 -.361E-03 0.106E-03
   0.932E+01 -.454E+01 -.791E+00   -.887E+01 0.396E+01 0.874E+00   -.142E+01 0.109E+01 -.488E+00   -.240E-03 0.478E-03 -.201E-03
   -.508E+01 -.294E+01 0.245E+01   0.492E+01 0.341E+01 -.229E+01   0.257E+00 -.550E+00 -.738E+00   0.178E-03 0.228E-03 -.366E-04
   0.228E+01 -.725E+00 -.913E+00   -.259E+01 0.135E+00 0.136E+01   0.116E+00 0.203E+00 0.362E+00   0.107E-03 -.438E-04 0.219E-03
   0.288E+01 0.494E+01 -.572E+01   -.251E+01 -.421E+01 0.492E+01   -.155E+01 -.200E+01 0.184E+01   -.106E-02 -.653E-03 0.719E-03
   0.781E+00 0.128E+00 -.222E+00   0.622E-14 -.666E-13 -.266E-13   -.118E+01 -.168E+00 0.279E+00   -.207E-03 -.190E-03 0.898E-04

 POSITION                                       TOTAL-FORCE (eV/Angst)
     10.75819     10.70106      0.08771        -0.083507      1.277288     -0.486954
      5.35962      0.07624      0.06867         0.443393      0.666569     -0.031254
     10.75950      5.35302      0.04923         0.187372      0.838342     -0.184182
      5.55482      5.55253     10.75516        -0.591820      0.952546      0.691018
      0.12261      0.05241      5.42984        -1.449578      0.546312      0.433725
      5.41295      0.00790      5.32170        -0.852933      0.041258      1.026682
     10.67439      5.40585      5.21091         0.988020      0.471943      1.237815
      5.33789      5.30614      5.60066        -0.459201      1.923489      0.451784
      4.20702      1.38640      3.87552        -1.387821     -0.201069      0.488437
      9.49667      1.53658      4.06891         1.150772     -1.290976     -0.207725
      4.01667      6.68189      4.07547         1.382307     -0.138239      0.653178
      9.40930      6.83938      3.94951        -0.092659     -1.124940     -0.271664
      4.09977      1.38684      9.38912        -0.322814     -0.963336      1.222012
      9.47789      1.38127      9.44581         0.902017     -0.570715      0.197135
      4.10462      6.99543      9.40264         0.174045     -1.027161      0.176359
      9.40357      6.73988      9.40115         0.417357      0.466918      1.009304
      0.16755      2.76111      2.66947        -0.828904     -0.132322     -0.004377
      5.48597      2.78739      2.58585        -0.911600      0.113225     -0.399412
     10.85821      8.16659      2.79304         0.897638     -0.823173     -1.187567
      5.52795      8.02780      2.92190        -0.490543      0.410366     -1.265368
      0.11920      2.68972      8.09344        -0.928521      0.479055     -0.161939
      5.41460      2.81782      8.28871         0.462283      0.009597     -1.588107
     10.84800      8.14330      8.16425         0.006825     -0.289381      0.054805
      5.55599      8.35260      8.16095        -0.129471     -0.361128     -0.215173
      4.17931      4.08617      1.14225        -0.318877      0.030691      0.155882
      9.41176      3.98935      1.39166         0.464415      0.176923      0.614149
      4.18606      9.40544      1.37385        -0.868835     -0.130964      0.861573
      9.39216      9.36320      1.47185         0.735681      1.336228      0.139259
      3.88770      4.09885      6.95629         1.758599     -0.493175     -0.145782
      9.43976      4.02737      6.62396         1.113957     -0.425910      0.733213
      4.04339      9.48003      6.78476        -0.084412     -0.124297     -0.944703
      9.56554      9.62028      6.92016         0.216793     -0.809424     -1.595714
      2.62377     10.76577      2.77020         1.700400      0.445898     -0.842166
      8.15385      0.01667      2.81848        -0.197802      0.300373     -0.508641
      2.87581      5.38702      2.63554        -0.484273     -0.568262     -0.600993
      7.95694      5.27577      2.83099         1.610321      0.056491     -0.152116
      2.73561     10.76803      8.26034        -0.122224      0.731381     -1.447887
      8.10517      0.00634      8.14990         0.299611      1.611902     -0.984269
      2.65616      5.42743      8.24803        -0.616859      1.334732      0.384762
      8.16463      5.28999      8.05947        -0.282753      0.652077      0.438387
      1.40711      1.27884      1.30744        -0.505429     -0.247699     -0.039008
      6.83855      1.49821      1.35463        -0.230384     -2.470744      0.505392
      1.50036      6.68673      1.33330        -1.717487      0.494340      0.239036
      6.94846      6.77948      1.51616        -1.373454      0.589123     -1.707147
      1.49318      1.38445      6.74513         0.971763     -0.025618     -0.250967
      6.64842      1.36203      6.76147         0.579387      0.105993      0.606982
      1.25728      6.71697      6.78712        -0.253413     -0.448516     -0.523437
      6.82806      6.81767      6.88067         0.023291     -0.338411     -0.987204
      2.73995      2.65425     10.76055         0.284170     -0.220454      0.829404
      8.13715      2.64655     10.85801         0.950409      0.753331     -0.681799
      2.68013      8.14216     10.85924         0.670438      0.406133     -0.048215
      8.08055      8.29840     10.85454        -0.005696     -1.929287     -0.331990
      2.91342      2.90105      5.30302        -1.108511     -1.700522      0.124767
      8.05100      2.70339      5.41532        -1.047844     -0.024502     -0.288112
      2.65908      7.97120      5.35587        -0.028273      0.934979      1.395290
      8.28443      8.12061      5.40861        -0.936704      0.907514      1.596673
      1.41788      4.20678      4.02715         0.121890     -0.515165     -0.223241
      6.50055      4.05783      4.12232         1.459350     -0.338764      0.859957
      1.35295      9.46428      4.13699        -0.249055     -0.256041      0.237055
      6.79382      9.47902      4.15570         0.843160      0.118548      0.138369
      1.36349      4.02724      9.59616        -0.975133      0.507396     -0.405498
      6.86105      4.09679      9.58682         0.091146     -0.080841     -0.579618
      1.30810      9.49693      9.52006        -0.189340     -0.387039      0.808126
      6.82387      9.76808      9.54573        -1.177657     -1.272932      1.038478
    total drift:                               -0.396977     -0.040051      0.056779

  FREE ENERGIE OF THE ION-ELECTRON SYSTEM (eV)
  free  energy   TOTEN  =      -355.07276885 eV

  energy  without entropy=     -355.02063418  energy(sigma->0) =     -355.04670151

 d Force = 0.1389843E-01[-0.134E+00, 0.162E+00]  d Energy = 0.1263456E-01 0.126E-02
 d Force = 0.7118007E-01[-0.478E+00, 0.621E+00]  d Ewald  = 0.7128143E-01-0.101E-03

           RANDOM_SEED =         144947877                0                0

  ENERGY OF THE ELECTRON-ION-THERMOSTAT SYSTEM (eV)
% ion-electron   TOTEN  =      -355.072769  see above
  kinetic energy EKIN   =         3.689366
  kin. lattice  EKIN_LAT=         0.000000  (temperature  453.05 K)
  nose potential ES     =        -2.570033
  nose kinetic   EPS    =         1.072248
  total energy   ETOTAL =      -352.881189 eV

  maximum distance moved by ions :      0.31E-02

 mean value of Nose-termostat <S>:    -0.331 mean value of <T> :   559.585
 mean temperature <T/S>/<1/S>  :   465.276

 real space projection operators:
  max/ min on nodes  :        449.94        413.25

 Prediction of Wavefunctions ALPHA= 1.985 BETA=-1.024
 writing wavefunctions