 vasp.5.4.4.18Apr17-6-g9f103f2a35 (build Sep 15 2021 12:59:37) complex
 executed on             LinuxGNU date 2022.10.04  11:18:34

 INCAR:
 POTCAR:    PAW_PBE Si 05Jan2001

 POTCAR:    PAW_PBE Si 05Jan2001
   VRHFIN =Si: s2p2

   TITEL  = PAW_PBE Si 05Jan2001
   POMASS =   28.085; ZVAL   =    4.000    mass and valenz
   ENMAX  =  245.345; ENMIN  =  184.009 eV

 Optimization of the real space projectors (new method)

 maximal supplied QI-value         = 19.84
 optimisation between [QCUT,QGAM] = [  7.94, 16.07] = [ 17.64, 72.34] Ry
 Optimized for a Real-space Cutoff    1.22 Angstroem

   l    n(q)    QCUT    max X(q) W(low)/X(q) W(high)/X(q)  e(spline)
   0      6     7.937   159.560    0.56E-03    0.15E-02    0.73E-07
   0      6     7.937   115.863    0.56E-03    0.15E-02    0.72E-07
   1      5     7.937    88.339    0.41E-02    0.34E-02    0.59E-07
   1      5     7.937    48.592    0.40E-02    0.33E-02    0.57E-07

  PAW_PBE Si 05Jan2001                  :

 POSCAR: Si cubic diamond 2x2x2 super cell of con
  positions in direct lattice
 exchange correlation table for  LEXCH =       14
   RHO(1)=    0.500       N(1)  =     2000
   RHO(2)=  100.500       N(2)  =     4000

 ion  position               nearest neighbor table
   1  0.000  0.000  0.000-  14 2.35  28 2.35  41 2.35  63 2.35
   2  0.500  0.000  0.000-  13 2.35  27 2.35  42 2.35  64 2.35
   3  0.000  0.500  0.000-  16 2.35  26 2.35  43 2.35  61 2.35
   4  0.500  0.500  0.000-  15 2.35  25 2.35  44 2.35  62 2.35
   5  0.000  0.000  0.500-  10 2.35  32 2.35  45 2.35  59 2.35
   6  0.500  0.000  0.500-   9 2.35  31 2.35  46 2.35  60 2.35
   7  0.000  0.500  0.500-  12 2.35  30 2.35  47 2.35  57 2.35
   8  0.500  0.500  0.500-  11 2.35  29 2.35  48 2.35  58 2.35
   9  0.375  0.125  0.375-   6 2.35  18 2.35  33 2.35  53 2.35
  10  0.875  0.125  0.375-   5 2.35  17 2.35  34 2.35  54 2.35
  11  0.375  0.625  0.375-   8 2.35  20 2.35  35 2.35  55 2.35
  12  0.875  0.625  0.375-   7 2.35  19 2.35  36 2.35  56 2.35
  13  0.375  0.125  0.875-   2 2.35  22 2.35  37 2.35  49 2.35
  14  0.875  0.125  0.875-   1 2.35  21 2.35  38 2.35  50 2.35
  15  0.375  0.625  0.875-   4 2.35  24 2.35  39 2.35  51 2.35
  16  0.875  0.625  0.875-   3 2.35  23 2.35  40 2.35  52 2.35
  17  0.000  0.250  0.250-  10 2.35  26 2.35  41 2.35  57 2.35
  18  0.500  0.250  0.250-   9 2.35  25 2.35  42 2.35  58 2.35
  19  0.000  0.750  0.250-  12 2.35  28 2.35  43 2.35  59 2.35
  20  0.500  0.750  0.250-  11 2.35  27 2.35  44 2.35  60 2.35
  21  0.000  0.250  0.750-  14 2.35  30 2.35  45 2.35  61 2.35
  22  0.500  0.250  0.750-  13 2.35  29 2.35  46 2.35  62 2.35
  23  0.000  0.750  0.750-  16 2.35  32 2.35  47 2.35  63 2.35
  24  0.500  0.750  0.750-  15 2.35  31 2.35  48 2.35  64 2.35
  25  0.375  0.375  0.125-   4 2.35  18 2.35  35 2.35  49 2.35
  26  0.875  0.375  0.125-   3 2.35  17 2.35  36 2.35  50 2.35
  27  0.375  0.875  0.125-   2 2.35  20 2.35  33 2.35  51 2.35
  28  0.875  0.875  0.125-   1 2.35  19 2.35  34 2.35  52 2.35
  29  0.375  0.375  0.625-   8 2.35  22 2.35  39 2.35  53 2.35
  30  0.875  0.375  0.625-   7 2.35  21 2.35  40 2.35  54 2.35
  31  0.375  0.875  0.625-   6 2.35  24 2.35  37 2.35  55 2.35
  32  0.875  0.875  0.625-   5 2.35  23 2.35  38 2.35  56 2.35
  33  0.250  0.000  0.250-   9 2.35  27 2.35  41 2.35  59 2.35
  34  0.750  0.000  0.250-  10 2.35  28 2.35  42 2.35  60 2.35
  35  0.250  0.500  0.250-  11 2.35  25 2.35  43 2.35  57 2.35
  36  0.750  0.500  0.250-  12 2.35  26 2.35  44 2.35  58 2.35
  37  0.250  0.000  0.750-  13 2.35  31 2.35  45 2.35  63 2.35
  38  0.750  0.000  0.750-  14 2.35  32 2.35  46 2.35  64 2.35
  39  0.250  0.500  0.750-  15 2.35  29 2.35  47 2.35  61 2.35
  40  0.750  0.500  0.750-  16 2.35  30 2.35  48 2.35  62 2.35
  41  0.125  0.125  0.125-   1 2.35  17 2.35  33 2.35  49 2.35
  42  0.625  0.125  0.125-   2 2.35  18 2.35  34 2.35  50 2.35
  43  0.125  0.625  0.125-   3 2.35  19 2.35  35 2.35  51 2.35
  44  0.625  0.625  0.125-   4 2.35  20 2.35  36 2.35  52 2.35
  45  0.125  0.125  0.625-   5 2.35  21 2.35  37 2.35  53 2.35
  46  0.625  0.125  0.625-   6 2.35  22 2.35  38 2.35  54 2.35
  47  0.125  0.625  0.625-   7 2.35  23 2.35  39 2.35  55 2.35
  48  0.625  0.625  0.625-   8 2.35  24 2.35  40 2.35  56 2.35
  49  0.250  0.250  0.000-  13 2.35  25 2.35  41 2.35  61 2.35
  50  0.750  0.250  0.000-  14 2.35  26 2.35  42 2.35  62 2.35
  51  0.250  0.750  0.000-  15 2.35  27 2.35  43 2.35  63 2.35
  52  0.750  0.750  0.000-  16 2.35  28 2.35  44 2.35  64 2.35
  53  0.250  0.250  0.500-   9 2.35  29 2.35  45 2.35  57 2.35
  54  0.750  0.250  0.500-  10 2.35  30 2.35  46 2.35  58 2.35
  55  0.250  0.750  0.500-  11 2.35  31 2.35  47 2.35  59 2.35
  56  0.750  0.750  0.500-  12 2.35  32 2.35  48 2.35  60 2.35
  57  0.125  0.375  0.375-   7 2.35  17 2.35  35 2.35  53 2.35
  58  0.625  0.375  0.375-   8 2.35  18 2.35  36 2.35  54 2.35
  59  0.125  0.875  0.375-   5 2.35  19 2.35  33 2.35  55 2.35
  60  0.625  0.875  0.375-   6 2.35  20 2.35  34 2.35  56 2.35
  61  0.125  0.375  0.875-   3 2.35  21 2.35  39 2.35  49 2.35
  62  0.625  0.375  0.875-   4 2.35  22 2.35  40 2.35  50 2.35
  63  0.125  0.875  0.875-   1 2.35  23 2.35  37 2.35  51 2.35
  64  0.625  0.875  0.875-   2 2.35  24 2.35  38 2.35  52 2.35

IMPORTANT INFORMATION: All symmetrisations will be switched off!
NOSYMM: (Re-)initialisation of all symmetry stuff for point group C_1.

 KPOINTS: K-Points

Automatic generation of k-mesh.
Space group operators:
 irot       det(A)        alpha          n_x          n_y          n_z        tau_x        tau_y        tau_z
    1     1.000000     0.000000     1.000000     0.000000     0.000000     0.000000     0.000000     0.000000

 Subroutine IBZKPT returns following result:

 Found      1 irreducible k-points:

 Following reciprocal coordinates:
            Coordinates               Weight
  0.000000  0.000000  0.000000      1.000000

 Following cartesian coordinates:
            Coordinates               Weight
  0.000000  0.000000  0.000000      1.000000

 SYSTEM =  si_2x2x2
 POSCAR =  Si cubic diamond 2x2x2 super cell of con

 Startparameter for this run:
   NWRITE =      2    write-flag & timer
   PREC   = low       normal or accurate (medium, high low for compatibility)
   ISTART =      1    job   : 0-new  1-cont  2-samecut
   ICHARG =      0    charge: 1-file 2-atom 10-const
   ISPIN  =      1    spin polarized calculation?
   LNONCOLLINEAR =      F non collinear calculations
   LSORBIT =      F    spin-orbit coupling
   INIWAV =      1    electr: 0-lowe 1-rand  2-diag
   LASPH  =      F    aspherical Exc in radial PAW
   METAGGA=      F    non-selfconsistent MetaGGA calc.

 Electronic Relaxation 1
   ENCUT  =  250.0 eV  18.37 Ry    4.29 a.u.  14.00 14.00 14.00*2*pi/ulx,y,z
   ENINI  =  250.0     initial cutoff
   ENAUG  =  322.1 eV  augmentation charge cutoff
   NELM   =    150;   NELMIN=  2; NELMDL=  0     # of ELM steps
   EDIFF  = 0.1E-05   stopping-criterion for ELM
   LREAL  =      T    real-space projection
   NLSPLINE    = F    spline interpolate recip. space projectors
   LCOMPAT=      F    compatible to vasp.4.4
   GGA_COMPAT  = T    GGA compatible to vasp.4.4-vasp.4.6
   LMAXPAW     = -100 max onsite density
   LMAXMIX     =    2 max onsite mixed and CHGCAR
   VOSKOWN=      0    Vosko Wilk Nusair interpolation
   ROPT   =   -0.01000
 Ionic relaxation
   EDIFFG = 0.1E-04   stopping-criterion for IOM
   NSW    =    100    number of steps for IOM
   NBLOCK =      1;   KBLOCK =    100    inner block; outer block
   IBRION =      0    ionic relax: 0-MD 1-quasi-New 2-CG
   NFREE  =      0    steps in history (QN), initial steepest desc. (CG)
   ISIF   =      3    stress and relaxation
   IWAVPR =     12    prediction:  0-non 1-charg 2-wave 3-comb
   ISYM   =      0    0-nonsym 1-usesym 2-fastsym
   LCORR  =      T    Harris-Foulkes like correction to forces

   POTIM  = 3.0000    time-step for ionic-motion
   TEIN   =  600.0    initial temperature
   TEBEG  =  600.0;   TEEND  = 600.0 temperature during run
   SMASS  =   1.00    Nose mass-parameter (am)
   estimated Nose-frequenzy (Omega)   =  0.40E+14 period in steps = 52.39 mass=   0.899E-27a.u.
   SCALEE = 1.0000    scale energy and forces
   NPACO  =    256;   APACO  = 16.0  distance and # of slots for P.C.
   PSTRESS=    0.0 pullay stress

  Mass of Ions in am
   POMASS =  28.09
  Ionic Valenz
   ZVAL   =   4.00
  Atomic Wigner-Seitz radii
  virtual crystal weights
   VCA    =   1.00
   NELECT =     256.0000    total number of electrons
   NUPDOWN=      -1.0000    fix difference up-down

 DOS related values:
   EMIN   =  10.00;   EMAX   =-10.00  energy-range for DOS
   EFERMI =   0.00
   ISMEAR =     0;   SIGMA  =   0.10  broadening in eV -4-tet -1-fermi 0-gaus

 Electronic relaxation 2 (details)
   IALGO  =     48    algorithm
   LDIAG  =      T    sub-space diagonalisation (order eigenvalues)
   LSUBROT=      F    optimize rotation matrix (better conditioning)
   TURBO    =      0    0=normal 1=particle mesh
   IRESTART =      0    0=no restart 2=restart with 2 vectors
   NREBOOT  =      0    no. of reboots
   NMIN     =      0    reboot dimension
   EREF     =   0.00    reference energy to select bands
   IMIX   =      4    mixing-type and parameters
     AMIX     =   0.40;   BMIX     =  1.00
     AMIX_MAG =   1.60;   BMIX_MAG =  1.00
     AMIN     =   0.10
     WC   =   100.;   INIMIX=   1;  MIXPRE=   1;  MAXMIX= -45

 Intra band minimization:
   WEIMIN = 0.0010     energy-eigenvalue tresh-hold
   EBREAK =  0.16E-08  absolut break condition
   DEPER  =   0.30     relativ break condition

   TIME   =   0.40     timestep for ELM

  volume/ion in A,a.u.               =      20.02       135.12
  Fermi-wavevector in a.u.,A,eV,Ry     =   0.957017  1.808500 12.461327  0.915882
  Thomas-Fermi vector in A             =   2.085997

 Write flags
   LWAVE        =      T    write WAVECAR
   LDOWNSAMPLE  =      F    k-point downsampling of WAVECAR
   LCHARG       =      T    write CHGCAR
   LVTOT        =      F    write LOCPOT, total local potential
   LVHAR        =      F    write LOCPOT, Hartree potential only
   LELF         =      F    write electronic localiz. function (ELF)
   LORBIT       =      0    0 simple, 1 ext, 2 COOP (PROOUT), +10 PAW based schemes

 Dipole corrections
   LMONO  =      F    monopole corrections only (constant potential shift)
   LDIPOL =      F    correct potential (dipole corrections)
   IDIPOL =      0    1-x, 2-y, 3-z, 4-all directions
   EPSILON=  1.0000000 bulk dielectric constant

 Exchange correlation treatment:
   GGA     =    PS    GGA type
   VOSKOWN=      0    Vosko Wilk Nusair interpolation
   LHFCALC =     F    Hartree Fock is set to
   LHFONE  =     F    Hartree Fock one center treatment
   AEXX    =    0.0000 exact exchange contribution

 Linear response parameters
   LEPSILON=     F    determine dielectric tensor
   LRPA    =     F    only Hartree local field effects (RPA)
   LNABLA  =     F    use nabla operator in PAW spheres
   LVEL    =     F    velocity operator in full k-point grid
   LINTERFAST=   F  fast interpolation
   KINTER  =     0    interpolate to denser k-point grid
[...]
  Direction    XX          YY          ZZ          XY          YZ          ZX
  Alpha Z   107.59920   107.59920   107.59920
  Ewald   -2435.06445 -2438.06584 -2436.82456    19.03288    40.48241    -5.82507
  Hartree   160.35520   159.07019   159.81445     1.24404     4.05802    -0.54717
  E(xc)    -819.43280  -819.33861  -819.40113    -0.33062    -0.53060     0.04669
  Local    -942.02641  -937.34018  -939.83966   -19.27855   -41.56182     5.90449
  n-local  2481.08476  2480.56930  2480.65620     5.23587     8.45167    -0.79590
  augment  -364.05974  -364.01243  -364.04012    -0.28680    -0.39638    -0.00427
  Kinetic  1820.83115  1820.44422  1820.40002    -2.24508    -4.46539     1.35033
  Fock        0.00000     0.00000     0.00000     0.00000     0.00000     0.00000
  Total       9.28692     8.92585     8.36440     3.37174     6.03791     0.12910
  in kB      11.61120    11.15975    10.45780     4.21560     7.54904     0.16141

  Total+kin.    14.089      14.553      13.812       4.104       7.584      -0.204

 VOLUME and BASIS-vectors are now :
  energy-cutoff  :      250.00
  volume of cell :     1281.46
      direct lattice vectors                 reciprocal lattice vectors
    10.861800000  0.000000000  0.000000000     0.092065772  0.000000000  0.000000000
     0.000000000 10.861800000  0.000000000     0.000000000  0.092065772  0.000000000
     0.000000000  0.000000000 10.861800000     0.000000000  0.000000000  0.092065772

  length of vectors
    10.861800000 10.861800000 10.861800000     0.092065772  0.092065772  0.092065772

 FORCES acting on ions
    electron-ion (+dipol)            ewald-force                    non-local-force                 convergence-correction
   0.397E+01 0.512E+01 -.383E+00   -.325E+01 -.483E+01 -.452E-03   -.128E+01 -.673E+00 0.105E+01   -.115E-03 0.139E-03 -.797E-03
   -.170E+01 -.306E+01 0.607E+01   0.145E+01 0.230E+01 -.568E+01   -.366E+00 0.200E+01 -.573E+00   0.557E-03 -.521E-03 0.202E-03
   -.241E+01 0.241E+01 0.498E+01   0.207E+01 -.178E+01 -.454E+01   0.109E+01 -.113E+01 -.174E+01   0.202E-03 0.117E-02 0.307E-03
   -.482E+01 -.380E+01 -.279E+01   0.405E+01 0.306E+01 0.206E+01   0.153E+01 0.112E+01 0.111E+01   0.101E-02 0.848E-03 -.163E-03
   -.186E+01 0.282E+01 0.413E+01   0.156E+01 -.299E+01 -.333E+01   -.240E+00 0.447E+00 -.154E+01   0.563E-04 0.581E-03 0.425E-03
   0.335E+01 0.798E+01 0.215E+01   -.308E+01 -.653E+01 -.177E+01   -.692E+00 -.346E+01 -.173E+01   -.798E-03 -.142E-02 -.371E-03
   -.267E+01 -.742E+00 -.352E+00   0.252E+01 0.833E+00 0.498E-01   -.802E-01 0.689E+00 -.452E+00   0.201E-03 -.105E-02 -.223E-03
   0.360E+01 0.153E-01 -.428E+01   -.306E+01 -.292E+00 0.384E+01   -.107E+01 -.437E+00 0.887E+00   0.643E-03 -.561E-04 0.343E-03
   -.301E+01 0.709E-01 0.154E+01   0.233E+01 0.125E+00 -.105E+01   0.144E+01 -.202E+00 -.381E+00   -.422E-03 0.976E-04 -.343E-04
   -.815E+01 -.244E+01 -.255E-01   0.725E+01 0.152E+01 -.389E+00   0.243E+01 0.113E+01 0.530E+00   0.348E-03 0.109E-02 -.143E-04
   0.664E+01 0.337E+01 0.588E+00   -.577E+01 -.263E+01 -.587E+00   -.138E+01 -.860E+00 0.724E+00   0.516E-04 0.170E-03 -.934E-04
   0.769E+00 0.368E+01 -.189E+01   -.496E+00 -.345E+01 0.156E+01   -.116E+01 -.967E-01 -.220E+00   0.177E-05 -.846E-03 -.265E-03
   -.875E+00 0.424E+01 -.224E+01   0.779E+00 -.394E+01 0.198E+01   0.455E+00 -.152E+01 0.467E+00   0.620E-04 0.141E-03 0.171E-03
   0.561E+01 0.625E+01 0.799E+00   -.489E+01 -.523E+01 -.878E+00   -.188E+01 -.194E+01 -.435E+00   -.568E-04 0.339E-04 -.744E-03
   -.292E+01 -.504E+01 -.148E+01   0.220E+01 0.412E+01 0.118E+01   0.140E+01 0.194E+01 0.649E+00   0.164E-02 0.782E-03 0.104E-02
   -.456E+01 -.617E+01 -.138E+01   0.459E+01 0.573E+01 0.132E+01   0.121E+01 0.152E+01 0.100E+01   0.108E-03 0.178E-02 0.125E-02
   0.327E+01 -.174E+01 -.438E+01   -.288E+01 0.150E+01 0.388E+01   -.100E+01 0.612E+00 0.174E+01   -.538E-03 -.627E-05 0.869E-03
   -.263E+01 -.250E+01 -.544E+01   0.240E+01 0.235E+01 0.484E+01   -.228E+00 0.846E+00 0.168E+01   0.180E-04 0.937E-03 0.467E-03
   0.339E+01 -.330E+01 -.932E+00   -.290E+01 0.247E+01 0.119E+01   0.226E-01 0.152E+01 -.353E+00   0.216E-03 -.427E-03 -.463E-04
   -.236E+01 -.241E+01 0.318E+01   0.182E+01 0.238E+01 -.268E+01   -.585E-01 0.240E+00 -.941E+00   -.795E-03 0.189E-03 -.535E-03
   -.387E+01 -.823E+00 0.190E+01   0.318E+01 0.676E+00 -.140E+01   0.994E+00 0.900E+00 -.802E+00   -.679E-03 -.687E-03 -.406E-03
   0.643E-01 -.172E+01 0.202E+00   -.142E+00 0.152E+01 -.675E-01   -.247E+00 0.180E+01 -.100E+01   0.127E-02 0.558E-03 0.731E-04
   -.221E+01 -.249E+01 0.131E+01   0.166E+01 0.256E+01 -.136E+01   0.106E+01 -.154E+00 0.177E+00   -.508E-03 0.587E-03 0.112E-02
   0.768E+00 -.616E+00 -.303E+00   -.338E+00 0.693E+00 0.229E+00   0.961E-01 -.473E+00 0.626E+00   0.118E-02 -.580E-03 0.624E-03
   -.231E+00 -.299E+01 -.592E+01   0.122E+00 0.233E+01 0.512E+01   -.162E+00 0.146E+01 0.170E+01   0.509E-03 0.860E-04 0.975E-03
   -.906E+00 0.199E+00 -.409E+01   0.319E+00 -.373E+00 0.328E+01   0.342E+00 -.774E-01 0.102E+01   -.935E-03 -.653E-03 0.111E-02
   0.578E+01 0.491E-01 0.179E+01   -.441E+01 0.167E+00 -.183E+01   -.159E+01 -.858E+00 -.287E+00   0.661E-03 -.246E-03 -.198E-03
   -.381E+01 -.550E+01 -.459E+01   0.331E+01 0.486E+01 0.414E+01   0.979E+00 0.102E+01 0.130E+01   -.257E-03 0.669E-04 -.650E-03
   -.301E+01 0.146E+01 -.203E+01   0.293E+01 -.148E+01 0.223E+01   0.462E+00 0.300E+00 0.660E+00   0.338E-04 -.146E-03 -.623E-04
   0.395E+01 0.379E+00 -.130E+01   -.292E+01 -.865E+00 0.112E+01   -.923E-01 -.198E+00 0.355E+00   -.596E-03 -.146E-02 -.860E-03
   -.400E+00 -.162E+01 0.214E+01   -.225E+00 0.185E+01 -.156E+01   0.859E+00 0.875E-01 -.143E+01   0.475E-03 0.442E-03 -.150E-02
   0.484E+00 -.148E+01 -.533E+01   -.533E+00 0.131E+01 0.455E+01   0.531E+00 0.160E+00 0.180E+01   -.263E-03 0.705E-03 0.514E-03
   0.421E+01 0.692E+01 -.186E+01   -.372E+01 -.628E+01 0.180E+01   -.105E+01 -.141E+01 0.101E+00   0.116E-03 0.649E-03 -.407E-03
   0.197E+01 0.701E+01 0.848E+00   -.177E+01 -.577E+01 -.736E+00   -.696E+00 -.238E+01 -.786E+00   -.508E-03 0.622E-03 -.813E-03
   0.174E+01 0.462E+00 -.424E+01   -.188E+01 -.381E+00 0.360E+01   0.326E+00 -.708E+00 0.800E+00   0.238E-04 -.122E-03 0.324E-03
   -.463E+01 -.237E+00 -.436E+01   0.394E+01 -.112E+00 0.429E+01   0.156E+01 0.476E+00 0.161E+01   0.173E-04 -.147E-02 0.721E-03
   0.441E+01 -.582E+01 -.758E+00   -.392E+01 0.495E+01 0.890E+00   -.931E+00 0.146E+01 0.133E+00   -.696E-03 0.657E-03 -.736E-04
   -.160E+01 -.321E+01 -.723E+01   0.150E+01 0.283E+01 0.610E+01   0.420E+00 0.158E+00 0.120E+01   -.373E-04 0.713E-03 -.186E-04
   0.251E+01 0.649E+01 0.382E+01   -.236E+01 -.572E+01 -.377E+01   -.768E+00 -.216E+01 -.693E+00   -.621E-03 -.881E-03 -.118E-02
   0.390E+01 0.536E+01 0.364E-01   -.357E+01 -.441E+01 0.204E+00   -.212E+01 -.182E+01 -.283E+00   -.187E-02 -.915E-03 -.669E-03
   -.110E+01 0.564E+01 -.887E+00   0.753E+00 -.524E+01 0.653E+00   0.348E+00 -.768E+00 0.142E+00   0.273E-03 -.394E-03 0.466E-03
   0.392E+00 0.345E+01 0.609E+01   -.208E-01 -.346E+01 -.542E+01   0.110E+00 -.737E+00 -.144E+01   0.992E-03 -.639E-03 -.237E-03
   0.152E+01 -.254E+01 -.181E+01   -.176E+01 0.254E+01 0.177E+01   0.131E+00 -.110E+00 0.831E+00   -.368E-03 -.103E-03 -.119E-03
   -.391E+00 -.147E+01 0.692E+01   0.953E+00 0.149E+01 -.564E+01   -.561E+00 0.250E+00 -.229E+01   -.597E-03 0.552E-04 -.122E-02
   -.232E+01 -.754E+00 -.195E+01   0.185E+01 0.258E+00 0.175E+01   0.153E+01 0.698E+00 0.108E+01   -.520E-03 0.285E-03 -.381E-04
   -.660E+01 -.403E+01 -.162E+01   0.568E+01 0.328E+01 0.185E+01   0.203E+01 0.104E+01 0.135E+01   0.157E-02 0.758E-03 0.172E-02
   0.531E+01 -.578E+01 0.209E+01   -.461E+01 0.514E+01 -.156E+01   -.114E+01 0.987E+00 -.273E+00   0.960E-04 -.104E-02 -.399E-03
   -.252E+01 -.110E+01 0.364E-01   0.256E+01 0.125E+01 -.446E+00   -.185E-01 0.477E+00 -.367E+00   -.426E-03 -.666E-03 0.172E-03
   0.358E+01 -.166E+01 0.690E+01   -.291E+01 0.150E+01 -.616E+01   -.759E+00 0.245E+00 -.198E+01   -.188E-05 -.722E-03 -.275E-03
   0.502E+01 0.221E+01 0.499E+01   -.439E+01 -.186E+01 -.419E+01   -.914E+00 0.148E+00 -.114E+01   -.120E-03 -.189E-03 -.127E-03
   -.189E+01 -.667E+01 -.146E+01   0.135E+01 0.595E+01 0.140E+01   0.734E+00 0.180E+01 -.709E-01   0.320E-03 0.202E-03 0.138E-03
   -.637E+00 -.151E+01 -.798E+00   0.829E+00 0.161E+01 0.748E+00   -.109E+01 -.105E+01 -.959E+00   -.418E-03 -.105E-03 -.125E-02
   0.177E+01 -.148E+01 -.693E+01   -.148E+01 0.166E+01 0.567E+01   -.745E+00 -.113E-01 0.121E+01   -.566E-03 0.325E-03 -.131E-03
   0.110E+00 -.444E+01 0.395E+01   -.198E+00 0.403E+01 -.363E+01   -.121E+01 0.142E+01 -.512E+00   0.528E-03 0.127E-02 0.612E-03
   -.564E+00 -.926E+00 0.896E+00   -.599E-01 0.704E+00 -.121E+01   0.225E+00 0.278E+00 -.700E-01   0.506E-03 0.318E-03 -.611E-03
   -.123E+01 0.392E+01 0.618E+01   0.137E+01 -.327E+01 -.507E+01   -.525E+00 -.132E+01 -.853E+00   -.582E-03 0.497E-04 0.348E-03
   0.195E+01 -.271E+01 0.419E+01   -.139E+01 0.229E+01 -.329E+01   -.550E+00 0.418E+00 -.124E+01   -.186E-03 -.303E-03 0.506E-03
   -.130E+01 0.703E+01 -.269E+01   0.130E+01 -.537E+01 0.244E+01   0.962E+00 -.310E+01 -.738E+00   0.959E-03 -.105E-03 -.141E-03
   -.872E-01 0.239E+01 0.423E+01   -.134E+00 -.271E+01 -.350E+01   0.417E+00 0.546E+00 -.971E+00   -.817E-04 -.124E-03 0.317E-03
   0.172E+01 -.485E+01 -.642E+01   -.139E+01 0.409E+01 0.572E+01   0.264E+00 0.167E+01 0.117E+01   -.531E-03 0.240E-03 0.324E-03
   0.107E+01 0.187E+00 0.103E+01   -.102E+01 0.129E+00 -.131E+01   -.495E+00 -.410E+00 0.853E+00   -.703E-04 -.615E-03 -.681E-03
   -.313E+01 0.233E+01 0.389E+01   0.250E+01 -.241E+01 -.354E+01   0.159E+01 -.660E+00 -.471E+00   0.143E-03 -.207E-03 -.631E-03
   0.203E+01 0.656E+01 0.205E+01   -.189E+01 -.551E+01 -.207E+01   -.368E+00 -.156E+01 -.665E+00   -.679E-03 0.871E-04 0.376E-03
   -.463E+01 -.523E+00 0.333E+01   0.425E+01 0.888E+00 -.280E+01   0.483E+00 0.521E+00 -.246E+00   0.441E-03 -.419E-03 0.667E-03
   -.169E+00 -.136E+00 0.915E-01   -.364E-13 -.515E-13 0.568E-13   0.588E+00 0.984E-01 0.136E-01   0.384E-03 -.478E-03 0.185E-03

 POSITION                                       TOTAL-FORCE (eV/Angst)
      0.09922      0.03331     10.85693        -0.552303     -0.387712      0.665538
      5.54340     10.68293     10.82092        -0.618983      1.236234     -0.184182
     10.76615      5.45663      0.01766         0.747007     -0.497963     -1.305508
      5.36753      5.43038     10.85777         0.763103      0.383221      0.380849
      0.03154     10.75261      5.37404        -0.535491      0.275098     -0.738891
      5.31225      0.19121      5.58438        -0.421531     -2.004697     -1.357643
      0.10721      5.24576      5.58972        -0.233707      0.779619     -0.754159
      5.45611      5.58873      5.42668        -0.524375     -0.713966      0.440186
      4.01052      1.41498      4.05850         0.764753     -0.006199      0.113580
      9.50860      1.33662      4.02443         1.534938      0.202107      0.115203
      4.14727      6.82745      3.94066        -0.508436     -0.125241      0.725556
      9.58418      6.59113      4.18390        -0.884728      0.134211     -0.559176
      4.04585      1.38220      9.56228         0.358965     -1.224066      0.208745
      9.60962      1.44127      9.59896        -1.157838     -0.929921     -0.515103
      4.03167      6.72394      9.51139         0.686866      1.027307      0.348503
      9.44424      6.80377      9.47835         1.238969      1.077999      0.946034
      0.04392      2.66504      2.55619        -0.619387      0.367633      1.236827
      5.44175      2.69847      2.66375        -0.457659      0.696707      1.085037
     10.76250      8.00898      2.73949         0.513723      0.688257     -0.098413
      5.52409      8.16487      2.70533        -0.594585      0.209903     -0.440452
     10.83919      2.67270      8.13452         0.299277      0.752556     -0.303883
      5.45889      2.58050      8.19457        -0.323507      1.604194     -0.870073
     10.77415      8.19212      8.06098         0.510209     -0.088127      0.128887
      5.35169      8.12234      8.12073         0.526976     -0.396688      0.553380
      4.09305      4.04752      1.32651        -0.270828      0.791753      0.907545
      9.48677      4.06340      1.31784        -0.245516     -0.252291      0.206646
      4.12904      9.53052      1.38995        -0.223084     -0.642050     -0.324662
      9.50425      9.60874      1.41901         0.482800      0.380629      0.839698
      4.10399      4.07165      6.72541         0.377848      0.277919      0.861657
      9.41338      4.08697      6.85734         0.940296     -0.685562      0.179619
      4.01456      9.56091      6.93210         0.233992      0.321710     -0.845864
      9.38785      9.57142      6.66903         0.481931     -0.010795      1.021771
      2.76764      0.01940      2.74242        -0.561938     -0.773853      0.041117
      8.06340      0.08651      2.83822        -0.499282     -1.142855     -0.674535
      2.67446      5.49553      2.66084         0.178628     -0.626665      0.163302
      8.06574      5.37029      2.62550         0.873463      0.126539      1.540520
      2.63297      0.02496      8.19092        -0.442896      0.583284      0.264482
      8.11381      0.10300      8.12486         0.320194     -0.221181      0.070189
      2.77579      5.51072      8.13398        -0.625033     -1.391490     -0.653362
      8.20667      5.48760      8.19890        -1.795230     -0.868748     -0.043769
      1.45658      1.34623      1.34607        -0.000130     -0.371832     -0.091606
      6.74010      1.34415      1.38597         0.482129     -0.741134     -0.766627
      1.28735      6.79136      1.27510        -0.105830     -0.105894      0.782888
      6.82133      6.80514      1.36966         0.000179      0.273666     -1.009171
      1.23607      1.31894      6.67901         1.064657      0.202126      0.876638
      6.78688      1.43886      6.64974         1.114526      0.293191      1.581160
      1.43193      6.80044      6.75877        -0.437385      0.346394      0.256460
      6.82916      6.80052      6.86638         0.018389      0.617923     -0.776241
      2.72300      2.76095      0.06785        -0.088480      0.077785     -1.236536
      8.11729      2.68631      0.03540        -0.281211      0.503717     -0.328566
      2.73656      8.06081      0.04337         0.189481      1.075576     -0.136262
      8.26815      8.23861      0.09719        -0.894028     -0.937096     -1.010048
      2.71249      2.71188      5.43245        -0.456286      0.163895     -0.047379
      8.27808      2.70714      5.38691        -1.293571      1.021179     -0.193505
      2.85928      8.14276      5.44282        -0.397969      0.056396     -0.386220
      8.16169      8.13821      5.36098        -0.395022     -0.672111      0.256541
      1.36670      4.02182      4.04044         0.010770     -0.010801     -0.335427
      6.71085      4.17970      4.14517         0.970391     -1.446551     -0.985430
      1.38415      9.36915      4.04559         0.195519      0.229330     -0.239926
      6.65525      9.50600      4.15859         0.591025      0.920353      0.470226
      1.38816      4.10139      9.43541        -0.439501     -0.094678      0.569562
      6.70439      4.11844      9.50708         0.954167     -0.748529     -0.120511
      1.35994      9.46700      9.56341        -0.226247     -0.503153     -0.681359
      6.86728      9.35112      9.40746         0.105850      0.885468      0.281372
    total drift:                                0.419025     -0.037968      0.105232

  FREE ENERGIE OF THE ION-ELECTRON SYSTEM (eV)
  free  energy   TOTEN  =      -356.50033701 eV

  energy  without entropy=     -356.47634487  energy(sigma->0) =     -356.48834094

 d Force =-0.3336194E+00[-0.465E+00,-0.202E+00]  d Energy =-0.3319164E+00-0.170E-02
 d Force = 0.4649360E+00[-0.112E+00, 0.104E+01]  d Ewald  = 0.4646731E+00 0.263E-03

           RANDOM_SEED =         144394820              768                0

  ENERGY OF THE ELECTRON-ION-THERMOSTAT SYSTEM (eV)
% ion-electron   TOTEN  =      -356.500337  see above
  kinetic energy EKIN   =         3.624796
  kin. lattice  EKIN_LAT=         0.000000  (temperature  445.12 K)
  nose potential ES     =        -2.854515
  nose kinetic   EPS    =         0.920559
  total energy   ETOTAL =      -354.809497 eV

  maximum distance moved by ions :      0.31E-02

 mean value of Nose-termostat <S>:    -0.583 mean value of <T> :   562.478
 mean temperature <T/S>/<1/S>  :   600.309

 real space projection operators:
  max/ min on nodes  :        448.88        414.12

 Prediction of Wavefunctions ALPHA= 2.008 BETA=-1.043
 writing wavefunctions